
;this file is automatically generated: Wed Feb 26 14:38:42 CST 2020

;declarations generated

(declare-fun type_410d5134_9040_444d_a7cd_89b76bf43725_Class15 ( Int) Bool)
(declare-fun oclExcludes ( Int Int) Bool)
(declare-fun Cardinality ( Int) Int)
(declare-fun obj_3087f732_5690_43f8_b93c_68edc85eafef ( Int) Int)
(declare-fun oclSelect ( Int Bool) Int)
(declare-fun class15_Class15BoolAttr0 ( Int) Bool)
(declare-fun Enum0 ( Int) Int)
(declare-fun Enum1 ( Int) Int)
(declare-fun container_ ( Int) Int)
(declare-fun oclIncludes ( Int Int) Bool)
(declare-fun ObjAt ( Int Int) Int)

;formula(s) generated
(assert (! (forall ((v Int)) (=> ( type_410d5134_9040_444d_a7cd_89b76bf43725_Class15 v )  ( class15_Class15BoolAttr0 ( obj_3087f732_5690_43f8_b93c_68edc85eafef v )  ) )):named l0))
(assert (exists ((o Int)) ( type_410d5134_9040_444d_a7cd_89b76bf43725_Class15 ( obj_3087f732_5690_43f8_b93c_68edc85eafef o )  ) ))

 ;end of formula 